4490132028023659681504,11,1,2,06,1,1,2,09,8,1,2,01,11,1,2,015,5,1,2,08,6,1,2,02,12,1,2,05,15,1,2,013,1,1,2,01,2,1,2,08,2,1,2,011,9,1,2,08,9,1,2,02,4,1,2,07,4,1,2,010,6,1,2,014,14,1,2,010,14,1,2,011,14,1,2,08,4,1,2,013,3,1,2,04,7,1,2,03,6,1,2,07,4,1,2,010,7,1,2,013,3,1,2,06,2,1,2,012,11,1,2,04,13,1,2,09,12,1,2,07,9,1,2,012,11,1,2,011,8,1,2,012,12,1,2,07,9,1,2,03,5,1,2,02,9,1,2,015,14,1,2,013,10,1,2,012,13,1,2,015,12,1,2,03,1,1,2,01,8,1,2,011,13,1,2,06,10,1,2,08,12,1,2,010,6,1,2,06,2,1,2,01,11,1,2,011,6,1,2,0